3784243737301466029509,15,1,2,09,5,1,2,08,6,1,2,012,13,1,2,014,15,1,2,09,7,1,2,06,11,1,2,010,1,1,2,02,11,1,2,013,11,1,2,04,14,1,2,02,15,1,2,05,9,1,2,02,7,1,2,015,12,1,2,04,12,1,2,010,3,1,2,012,1,1,2,02,7,1,2,014,1,1,2,010,6,1,2,07,10,1,2,09,1,1,2,06,8,1,2,015,6,1,2,014,8,1,2,02,15,1,2,011,2,1,2,02,12,1,2,09,15,1,2,015,7,1,2,011,8,1,2,08,6,1,2,012,1,1,2,05,7,1,2,012,11,1,2,014,13,1,2,05,3,1,2,08,15,1,2,02,13,1,2,012,1,1,2,014,7,1,2,02,1,1,2,03,14,1,2,03,1,1,2,013,10,1,2,01,12,1,2,014,9,1,2,013,1,1,2,04,9,1,2,0